c Pigeonhole PHP(3,2) — 3 pigeons into 2 holes. UNSAT.
c x_{i,j} means pigeon i is in hole j. i=1..3, j=1..2.
c Variable indexing: x_{i,j} = (i-1)*2 + j
c Each pigeon in >=1 hole; no two pigeons share a hole.
p cnf 6 9
1 2 0
3 4 0
5 6 0
-1 -3 0
-1 -5 0
-3 -5 0
-2 -4 0
-2 -6 0
-4 -6 0
